RT is False
Default write of storage_offers_DA.csv just to have a file (but constraint should be inactive)
Reading model...
...model read.
creating competitive generators file...
...competitive generators recorded.
Loading data...
.. day-ahead data with real-time VRE data read.
Compiling instance...
...instance created.
Creating Offer Mitigation (model will solve as dispatch if TRUE)...
NOTE: storage offers will not be mitigated
...storage offer mitigation file created
Converting model to MPEC...
...converted
NOTE: initial MIP solve with only storage competitive to get feasible solution
Solving...

Welcome to IBM(R) ILOG(R) CPLEX(R) Interactive Optimizer 12.9.0.0
  with Simplex, Mixed Integer & Barrier Optimizers
5725-A06 5725-A29 5724-Y48 5724-Y49 5724-Y54 5724-Y55 5655-Y21
Copyright IBM Corp. 1988, 2019.  All Rights Reserved.

Type 'help' for a list of available commands.
Type 'help' followed by a command name for more
information on commands.

CPLEX> Logfile 'cplex.log' closed.
Logfile 'C:\Users\Luke\Desktop\test919\logs\tmpy8_z58pd.cplex.log' open.
CPLEX> New value for parallel optimization mode: -1
CPLEX> New value for mixed integer optimality gap tolerance: 0.01
CPLEX> New value for integrality tolerance: 1e-09
CPLEX> New value for feasibility tolerance: 0.01
CPLEX> New value for deterministic time limit in ticks: 75000
CPLEX> Problem 'C:\Users\Luke\Desktop\test919\logs\tmp56yqnxtm.pyomo.lp' read.
Read time = 0.20 sec. (14.73 ticks)
CPLEX> Problem name         : C:\Users\Luke\Desktop\test919\logs\tmp56yqnxtm.pyomo.lp
Objective sense      : Maximize
Variables            :   53805  [Nneg: 1,  Box: 22000,  Free: 4464,
                                 Binary: 27340]
Objective nonzeros   :    9076
Linear constraints   :  123205  [Less: 41346,  Greater: 59096,  Equal: 22763]
  Nonzeros           :  291703
  RHS nonzeros       :   67489

Variables            : Min LB: -5000.000        Max UB: 1000000.       
Objective nonzeros   : Min   : 0.8000000        Max   : 2500.000       
Linear constraints   :
  Nonzeros           : Min   : 0.8000000        Max   : 1000000.       
  RHS nonzeros       : Min   : 0.8000000        Max   : 1000000.       
CPLEX> CPXPARAM_Parallel                                -1
CPXPARAM_Simplex_Tolerances_Feasibility          0.01
CPXPARAM_DetTimeLimit                            75000
CPXPARAM_MIP_Tolerances_MIPGap                   0.01
CPXPARAM_MIP_Tolerances_Integrality              1.0000000000000001e-09
Tried aggregator 3 times.
MIP Presolve eliminated 88761 rows and 19109 columns.
MIP Presolve added 3352 rows and 0 columns.
MIP Presolve modified 24768 coefficients.
Aggregator did 12940 substitutions.
Reduced MIP has 24856 rows, 21200 columns, and 70861 nonzeros.
Reduced MIP has 8386 binaries, 0 generals, 0 SOSs, and 0 indicators.
Presolve time = 0.25 sec. (175.92 ticks)
Probing fixed 403 vars, tightened 2865 bounds.
Probing time = 1.44 sec. (909.89 ticks)
Tried aggregator 2 times.
MIP Presolve eliminated 912 rows and 808 columns.
MIP Presolve modified 2232 coefficients.
Aggregator did 40 substitutions.
Reduced MIP has 23904 rows, 20352 columns, and 68099 nonzeros.
Reduced MIP has 7983 binaries, 0 generals, 0 SOSs, and 0 indicators.
Presolve time = 0.09 sec. (68.25 ticks)
Probing time = 0.03 sec. (16.35 ticks)
Clique table members: 6599.
MIP emphasis: balance optimality and feasibility.
MIP search method: dynamic search.
Parallel mode: opportunistic, using up to 24 threads.
Root relaxation solution time = 0.42 sec. (514.20 ticks)

        Nodes                                         Cuts/
   Node  Left     Objective  IInf  Best Integer    Best Bound    ItCnt     Gap

      0     0      -23.4052   800                    -23.4052     3974         
      0     0      -23.4052    19                    Cuts: 23     3984         
      0     0      -23.4052    18                 Flowcuts: 3     3986         
      0     6    infeasible                       Impl Bds: 1     4621         
Elapsed time = 7.03 sec. (4449.03 ticks, tree = 0.02 MB, solutions = 0)
*    72+   25                        -3477.7573     -138.0727            96.03%
*   352    20      integral     0     -138.0727     -138.0727    10300    0.00%
    392    13     -314.5730     4     -138.0727     -138.0727    14135    0.00%

Implied bound cuts applied:  3
Flow cuts applied:  16
Gomory fractional cuts applied:  8

Root node processing (before b&c):
  Real time             =    6.64 sec. (4441.45 ticks)
Parallel b&c, 24 threads:
  Real time             =    1.17 sec. (382.02 ticks)
  Sync time (average)   =    0.49 sec.
  Wait time (average)   =    0.00 sec.
                          ------------
Total (root+branch&cut) =    7.81 sec. (4823.47 ticks)

Solution pool: 4 solutions saved.

MIP - Integer optimal solution:  Objective = -1.3807271756e+02
Solution time =    7.83 sec.  Iterations = 14403  Nodes = 397
Deterministic time = 4823.63 ticks  (616.20 ticks/sec)

CPLEX> Incumbent solution written to file 'C:\Users\Luke\Desktop\test919\logs\tmp2sx9eolp.cplex.sol'.
CPLEX> NOTE: no warmstart specified for MIP iteration, default behavior is true
NOTE: resolving with all competitive generators using storage-only solution to warmstart
Solving...

Welcome to IBM(R) ILOG(R) CPLEX(R) Interactive Optimizer 12.9.0.0
  with Simplex, Mixed Integer & Barrier Optimizers
5725-A06 5725-A29 5724-Y48 5724-Y49 5724-Y54 5724-Y55 5655-Y21
Copyright IBM Corp. 1988, 2019.  All Rights Reserved.

Type 'help' for a list of available commands.
Type 'help' followed by a command name for more
information on commands.

CPLEX> Logfile 'cplex.log' closed.
Logfile 'C:\Users\Luke\Desktop\test919\logs\tmp9x14ocgq.cplex.log' open.
CPLEX> New value for parallel optimization mode: -1
CPLEX> New value for mixed integer optimality gap tolerance: 0.01
CPLEX> New value for integrality tolerance: 1e-09
CPLEX> New value for feasibility tolerance: 0.01
CPLEX> New value for deterministic time limit in ticks: 75000
CPLEX> Problem 'C:\Users\Luke\Desktop\test919\logs\tmp4_26uz0f.pyomo.lp' read.
Read time = 0.19 sec. (14.75 ticks)
CPLEX> MIP start file 'C:\Users\Luke\Desktop\test919\logs\tmpbeyso1g7.cplex.mst' read.
CPLEX> Problem name         : C:\Users\Luke\Desktop\test919\logs\tmp4_26uz0f.pyomo.lp
Objective sense      : Maximize
Variables            :   54525  [Nneg: 1,  Box: 22720,  Free: 4464,
                                 Binary: 27340]
Objective nonzeros   :    9796
Linear constraints   :  123205  [Less: 41346,  Greater: 59096,  Equal: 22763]
  Nonzeros           :  291703
  RHS nonzeros       :   67489

Variables            : Min LB: -5000.000        Max UB: 1000000.       
Objective nonzeros   : Min   : 0.8000000        Max   : 2500.000       
Linear constraints   :
  Nonzeros           : Min   : 0.8000000        Max   : 1000000.       
  RHS nonzeros       : Min   : 0.8000000        Max   : 1000000.       
CPLEX> CPXPARAM_Parallel                                -1
CPXPARAM_Simplex_Tolerances_Feasibility          0.01
CPXPARAM_DetTimeLimit                            75000
CPXPARAM_MIP_Tolerances_MIPGap                   0.01
CPXPARAM_MIP_Tolerances_Integrality              1.0000000000000001e-09
Warning:  No solution found from 1 MIP starts.
Retaining values of one MIP start for possible repair.
Tried aggregator 3 times.
MIP Presolve eliminated 88761 rows and 19829 columns.
MIP Presolve added 3352 rows and 0 columns.
MIP Presolve modified 24768 coefficients.
Aggregator did 12940 substitutions.
Reduced MIP has 24856 rows, 21200 columns, and 70861 nonzeros.
Reduced MIP has 8386 binaries, 0 generals, 0 SOSs, and 0 indicators.
Presolve time = 0.23 sec. (176.28 ticks)
Probing fixed 403 vars, tightened 2865 bounds.
Probing time = 1.45 sec. (909.89 ticks)
Tried aggregator 2 times.
MIP Presolve eliminated 912 rows and 808 columns.
MIP Presolve modified 2232 coefficients.
Aggregator did 40 substitutions.
Reduced MIP has 23904 rows, 20352 columns, and 68099 nonzeros.
Reduced MIP has 7983 binaries, 0 generals, 0 SOSs, and 0 indicators.
Presolve time = 0.09 sec. (68.25 ticks)
Probing time = 0.03 sec. (16.35 ticks)
Clique table members: 6599.
MIP emphasis: balance optimality and feasibility.
MIP search method: dynamic search.
Parallel mode: opportunistic, using up to 24 threads.
Root relaxation solution time = 0.42 sec. (514.20 ticks)

        Nodes                                         Cuts/
   Node  Left     Objective  IInf  Best Integer    Best Bound    ItCnt     Gap

      0     0      -23.4052   800                    -23.4052     3974         
      0     0      -23.4052    19                    Cuts: 23     3984         
      0     0      -23.4052    18                 Flowcuts: 3     3986         
Repair heuristic found nothing.
      0     6    infeasible                       Impl Bds: 1     4708         
Elapsed time = 7.36 sec. (4554.15 ticks, tree = 0.02 MB, solutions = 0)
*    85+   35                        -5800.1341     -138.0727            97.62%
*   319    12      integral     0     -138.0727     -138.0727     8904    0.00%

Implied bound cuts applied:  9
Flow cuts applied:  16
Gomory fractional cuts applied:  8

Root node processing (before b&c):
  Real time             =    6.95 sec. (4546.37 ticks)
Parallel b&c, 24 threads:
  Real time             =    1.14 sec. (306.40 ticks)
  Sync time (average)   =    0.45 sec.
  Wait time (average)   =    0.00 sec.
                          ------------
Total (root+branch&cut) =    8.09 sec. (4852.77 ticks)

Solution pool: 5 solutions saved.

MIP - Integer optimal solution:  Objective = -1.3807271756e+02
Solution time =    8.11 sec.  Iterations = 10430  Nodes = 322
Deterministic time = 4852.93 ticks  (598.46 ticks/sec)

CPLEX> Incumbent solution written to file 'C:\Users\Luke\Desktop\test919\logs\tmp4vagi3g0.cplex.sol'.
CPLEX> Exporting results... 
